5 2
0 88 29 26 18 
88 0 43 71 80 
29 43 0 35 88 
26 71 35 0 51 
18 80 88 51 0 
0 31 11 70 6 
31 0 68 92 5 
11 68 0 64 81 
70 92 64 0 70 
6 5 81 70 0 
0 70 90 31 95 
70 0 33 9 96 
90 33 0 37 20 
31 9 37 0 31 
95 96 20 31 0 
